% demand
num_movements = 27;
loading_factor = [1900, 850, 2000, 1250, 950, 1650, 1150, 1350, 1150, 800, 1850, 1000, 1450, 1550, 1900, 1950, 1650, 1400, 1900, 1450, 1500, 1600, 1900, 2000, 800, 1350, 1150];
pickup_time = [0, 0, 0, 0, 1, 1, 1, 2, 2, 4, 4, 4, 5, 5, 5, 6, 6, 7, 7, 8, 8, 8, 8, 9, 9, 9, 9];
delivery_time = [1, 1, 1, 1, 5, 3, 2, 4, 4, 7, 5, 7, 6, 7, 6, 7, 8, 8, 8, 9, 9, 10, 9, 10, 10, 10, 10];

% transporter definition
total_capacity = 7000;
num_decks = 3;
capacity = [3000, 1000, 3000];

% ways out of decks
num_ways_out = 1;
paths_out = array3d(decks, ways_out, decks, [
% ways out of deck d1
2, 3, 0, 

% ways out of deck d2
3, 0, 0, 

% ways out of deck d3
0, 0, 0,	

]);

